95.1
#  This WEPP soil input file was made using USDA-SCS Soil-5 (1992) data 
#  base. Assumptions: soil albedo=0.23, initial sat.=0.75. If you have 
#  any question, please contact Reza Savabi, Ph: (317)-494-5051
#  Soil Name: AGA             Rec. ID: NM0605     Tex.:loam                
1     1
'AGA'               'L'      3   .23   .75  4856872.00  .016976   2.90   7.93
 254.0   48.2   13.5     .65     9.2      .0
 584.2   57.1   13.0     .22     7.8     2.9
1524.0   85.4    6.0     .07     3.6     4.2
