95.1
#  This WEPP soil input file was made using USDA-SCS Soil-5 (1992) data 
#  base. Assumptions: soil albedo=0.23, initial sat.=0.75. If you have 
#  any question, please contact Reza Savabi, Ph: (317)-494-5051
#  Soil Name: ALANOS          Rec. ID: NM0606     Tex.:loam                
1     1
'ALANOS'            'L'      3   .23   .75  5314088.00  .016664   3.12   6.37
 228.6   41.0   18.9     .70    12.6     8.7
 457.2   55.8   20.0     .23    12.0    43.5
1524.0   35.0   45.0     .08    27.0    78.0
