95.1
#  This WEPP soil input file was made using USDA-SCS Soil-5 (1992) data 
#  base. Assumptions: soil albedo=0.23, initial sat.=0.75. If you have 
#  any question, please contact Reza Savabi, Ph: (317)-494-5051
#  Soil Name: ARRIBA          Rec. ID: NM0669     Tex.:gravelly loam       
1     1
'ARRIBA'            'GR-L'   3   .23   .75  6114516.00  .009704   3.18   5.16
  76.2   35.1   23.6    1.50    16.8    21.4
 254.0   25.7   40.0     .50    24.0     7.3
 762.0   30.1   32.5     .17    19.5     7.3
