95.1
#  This WEPP soil input file was made using USDA-SCS Soil-5 (1992) data 
#  base. Assumptions: soil albedo=0.23, initial sat.=0.75. If you have 
#  any question, please contact Reza Savabi, Ph: (317)-494-5051
#  Soil Name: BARIO           Rec. ID: NM0618     Tex.:loam                
1     1
'BARIO'             'L'      3   .23   .75  6114516.00  .007413   3.18   4.86
  76.2   35.1   23.6    3.00    24.2     9.1
 685.8   37.7   47.5    1.00    38.0    10.1
1524.0   29.6   47.5     .33    38.0    10.1
