95.1
#  This WEPP soil input file was made using USDA-SCS Soil-5 (1992) data 
#  base. Assumptions: soil albedo=0.23, initial sat.=0.75. If you have 
#  any question, please contact Reza Savabi, Ph: (317)-494-5051
#  Soil Name: BERRYMAN        Rec. ID: NM0670     Tex.:loam                
1     1
'BERRYMAN'          'L'      3   .23   .75  6114516.00  .009704   3.18   5.50
  76.2   35.1   23.6    1.50    12.1      .0
 406.4   30.0   40.0     .50    16.0      .0
1524.0   28.3   45.0     .17    18.0      .0
