95.1
#  This WEPP soil input file was made using USDA-SCS Soil-5 (1992) data 
#  base. Assumptions: soil albedo=0.23, initial sat.=0.75. If you have 
#  any question, please contact Reza Savabi, Ph: (317)-494-5051
#  Soil Name: CALENDAR        Rec. ID: NM0671     Tex.:gravelly loam       
1     1
'CALENDAR'          'GR-L'   3   .23   .75  6114516.00  .009704   3.18   5.16
  50.8   35.1   23.6    1.50    16.8    29.1
 431.8   24.9   42.5     .50    25.5     7.3
 889.0   24.9   42.5     .17    25.5     7.3
