95.1
#  This WEPP soil input file was made using USDA-SCS Soil-5 (1992) data 
#  base. Assumptions: soil albedo=0.23, initial sat.=0.75. If you have 
#  any question, please contact Reza Savabi, Ph: (317)-494-5051
#  Soil Name: CELACY          Rec. ID: NM0619     Tex.:sandy loam          
1     1
'CELACY'            'SL'     3   .23   .75  5010105.00  .006508   2.98   9.59
 203.2   60.4   15.3    2.00    12.7     4.0
 558.8   57.8   26.5     .67    15.9     2.9
 711.2   58.7   24.0     .22    14.4     8.8
