95.1
#  This WEPP soil input file was made using USDA-SCS Soil-5 (1992) data 
#  base. Assumptions: soil albedo=0.23, initial sat.=0.75. If you have 
#  any question, please contact Reza Savabi, Ph: (317)-494-5051
#  Soil Name: GATLIN          Rec. ID: NM0626     Tex.:GRV-L               
1     1
'GATLIN'            'GRV-L'  3   .23   .75  5314088.00  .006983   3.12   6.19
 101.6   41.0   18.9    2.00    14.9    45.9
 254.0   50.9   25.0     .67    15.0    36.6
1524.0   80.8    7.5     .22     4.5    68.6
