95.1
#  This WEPP soil input file was made using USDA-SCS Soil-5 (1992) data 
#  base. Assumptions: soil albedo=0.23, initial sat.=0.75. If you have 
#  any question, please contact Reza Savabi, Ph: (317)-494-5051
#  Soil Name: LINDRITH        Rec. ID: NM0681     Tex.:silty clay loam     
1     1
'LINDRITH'          'SICL'   2   .23   .75  4238375.00  .007085   3.50   1.28
 279.4    7.2   32.9     .75    21.1     4.1
1524.0   73.7   14.0     .25     8.4     4.4
