95.1
#  This WEPP soil input file was made using USDA-SCS Soil-5 (1992) data 
#  base. Assumptions: soil albedo=0.23, initial sat.=0.75. If you have 
#  any question, please contact Reza Savabi, Ph: (317)-494-5051
#  Soil Name: LOARC           Rec. ID: NM0633     Tex.:loamy sand          
1     1
'LOARC'             'LS'     4   .23   .75  5144935.00  .008189   2.27  14.63
 355.6   81.5    5.0    1.50     5.7     1.4
 584.2   43.9   26.5     .50    15.9    13.7
 914.4   61.8   17.5     .17    10.5     7.5
1524.0   59.6   17.5     .06    10.5    20.9
