95.1
#  This WEPP soil input file was made using USDA-SCS Soil-5 (1992) data 
#  base. Assumptions: soil albedo=0.23, initial sat.=0.75. If you have 
#  any question, please contact Reza Savabi, Ph: (317)-494-5051
#  Soil Name: MODYON          Rec. ID: NM0652     Tex.:CB-L                
1     1
'MODYON'            'CB-L'   3   .23   .75  6114516.00  .008233   3.18   5.11
  76.2   35.1   23.6    2.00    17.7    19.0
 406.4   42.9   26.5     .67    15.9    45.2
 711.2   57.8   26.5     .22    15.9    52.6
