95.1
#  This WEPP soil input file was made using USDA-SCS Soil-5 (1992) data 
#  base. Assumptions: soil albedo=0.23, initial sat.=0.75. If you have 
#  any question, please contact Reza Savabi, Ph: (317)-494-5051
#  Soil Name: PIDINEEN        Rec. ID: NM0613     Tex.:ST-L                
1     1
'PIDINEEN'          'ST-L'   3   .23   .75  5314088.00  .006983   3.12   6.19
  76.2   41.0   18.9    2.00    14.9    14.0
 330.2   38.8   22.5     .67    13.5     6.3
 406.4   44.0   20.0     .22    12.0    21.8
