95.1
#  This WEPP soil input file was made using USDA-SCS Soil-5 (1992) data 
#  base. Assumptions: soil albedo=0.23, initial sat.=0.75. If you have 
#  any question, please contact Reza Savabi, Ph: (317)-494-5051
#  Soil Name: POSOS           Rec. ID: NM0675     Tex.:loam                
1     1
'POSOS'             'L'      2   .23   .75  6114516.00  .009704   3.18   5.16
  50.8   35.1   23.6    1.50    16.8     6.8
1524.0   32.5   42.5     .50    25.5     7.3
