95.1
#  This WEPP soil input file was made using USDA-SCS Soil-5 (1992) data 
#  base. Assumptions: soil albedo=0.23, initial sat.=0.75. If you have 
#  any question, please contact Reza Savabi, Ph: (317)-494-5051
#  Soil Name: RALPHSTON       Rec. ID: NM0637     Tex.:loam                
1     1
'RALPHSTON'         'L'      3   .23   .75  4856872.00  .005449   2.90   7.47
  50.8   48.2   13.5    3.00    13.4     6.1
 330.2   54.7   21.5    1.00    12.9     7.0
1524.0   45.5   26.5     .33    15.9     7.5
