95.1
#  This WEPP soil input file was made using USDA-SCS Soil-5 (1992) data 
#  base. Assumptions: soil albedo=0.23, initial sat.=0.75. If you have 
#  any question, please contact Reza Savabi, Ph: (317)-494-5051
#  Soil Name: RUSON           Rec. ID: NM0676     Tex.:silt loam           
1     1
'RUSON'             'SIL'    3   .23   .75  4702762.00  .007896   3.50   1.28
  50.8    6.4   24.5    2.50    19.1     5.5
 482.6   28.5   37.5     .83    22.5     7.3
1524.0   22.1   45.0     .28    27.0     7.3
