95.1
#  This WEPP soil input file was made using USDA-SCS Soil-5 (1992) data 
#  base. Assumptions: soil albedo=0.23, initial sat.=0.75. If you have 
#  any question, please contact Reza Savabi, Ph: (317)-494-5051
#  Soil Name: SMILO           Rec. ID: NM0638     Tex.:gravelly sandy loam 
1     1
'SMILO'             'GR-SL'  4   .23   .75  5010105.00  .005596   2.98   9.39
  50.8   60.4   15.3    3.50    15.4    22.0
 203.2   41.2   23.5    1.17    14.1     9.5
 635.0   25.8   47.5     .39    28.5    23.8
 812.8   30.8   47.5     .13    28.5    23.9
