95.1
#  This WEPP soil input file was made using USDA-SCS Soil-5 (1992) data 
#  base. Assumptions: soil albedo=0.23, initial sat.=0.75. If you have 
#  any question, please contact Reza Savabi, Ph: (317)-494-5051
#  Soil Name: TAPICITOES      Rec. ID: NM0678     Tex.:fine sandy loam     
1     1
'TAPICITOES'        'FSL'    2   .23   .75  6021164.00  .017768   2.70   8.88
  50.8   55.1   15.7     .70    10.7     7.3
 228.6   45.5   26.5     .23    15.9     7.3
