95.1
#  This WEPP soil input file was made using USDA-SCS Soil-5 (1992) data 
#  base. Assumptions: soil albedo=0.23, initial sat.=0.75. If you have 
#  any question, please contact Reza Savabi, Ph: (317)-494-5051
#  Soil Name: TEJANA          Rec. ID: NM0639     Tex.:GRV-L               
1     1
'TEJANA'            'GRV-L'  4   .23   .75  6114516.00  .008233   3.18   5.11
 101.6   35.1   23.6    2.00    17.7    40.8
 304.8   30.2   27.5     .67    16.5    30.9
 609.6   63.7   18.0     .22    10.8    31.7
1574.8   54.0   30.0     .07    18.0     4.4
