95.1
#  This WEPP soil input file was made using USDA-SCS Soil-5 (1992) data 
#  base. Assumptions: soil albedo=0.23, initial sat.=0.75. If you have 
#  any question, please contact Reza Savabi, Ph: (317)-494-5051
#  Soil Name: VIUDA           Rec. ID: NM0630     Tex.:gravelly sandy loam 
1     1
'VIUDA'             'GR-SL'  3   .23   .75  5010105.00  .007979   2.98   9.67
  50.8   60.4   15.3    1.50    11.9    25.9
 203.2   40.7   42.5     .50    25.5    17.8
 381.0   48.8   31.0     .17    18.6    21.2
