95.1
#  This WEPP soil input file was made using USDA-SCS Soil-5 (1992) data 
#  base. Assumptions: soil albedo=0.23, initial sat.=0.75. If you have 
#  any question, please contact Reza Savabi, Ph: (317)-494-5051
#  Soil Name: ADMAN           Rec. ID: NM0603     Tex.:CB-L                
1     1
'ADMAN'             'CB-L'   2   .23   .75  6114516.00  .007413   3.18   5.03
  50.8   35.1   23.6    3.00    19.4    20.5
 381.0   31.7   45.0    1.00    27.0    23.9
