95.1
#  This WEPP soil input file was made using USDA-SCS Soil-5 (1992) data 
#  base. Assumptions: soil albedo=0.23, initial sat.=0.75. If you have 
#  any question, please contact Reza Savabi, Ph: (317)-494-5051
#  Soil Name: BREECE          Rec. ID: NM0614     Tex.:sandy loam          
1     1
'BREECE'            'SL'     2   .23   .75  4730556.00  .007542   2.58  12.87
 254.0   74.6    8.0    1.50     7.4     4.0
1524.0   63.6   12.0     .50     7.2     5.4
