95.1
#  This WEPP soil input file was made using USDA-SCS Soil-5 (1992) data 
#  base. Assumptions: soil albedo=0.23, initial sat.=0.75. If you have 
#  any question, please contact Reza Savabi, Ph: (317)-494-5051
#  Soil Name: CELSOSPRINGS    Rec. ID: NM0620     Tex.:loam                
1     1
'CELSOSPRINGS'      'L'      5   .23   .75  6114516.00  .008233   3.18   5.11
  76.2   35.1   23.6    2.00    17.7     3.5
 330.2   32.3   40.0     .67    24.0     5.4
 660.4   31.9   40.0     .22    24.0    25.1
 838.2   33.7   40.0     .07    24.0    21.5
1524.0   44.2   27.5     .02    16.5    18.1
