95.1
#  This WEPP soil input file was made using USDA-SCS Soil-5 (1992) data 
#  base. Assumptions: soil albedo=0.23, initial sat.=0.75. If you have 
#  any question, please contact Reza Savabi, Ph: (317)-494-5051
#  Soil Name: COCHITI         Rec. ID: NM0607     Tex.:gravelly loam       
1     1
'COCHITI'           'GR-L'   3   .23   .75  5314088.00  .016664   3.12   6.37
 177.8   41.0   18.9     .70    12.6    26.0
 736.6   34.0   40.0     .23    24.0    44.3
1524.0   59.2   10.0     .08     6.0    52.1
