95.1
#  This WEPP soil input file was made using USDA-SCS Soil-5 (1992) data 
#  base. Assumptions: soil albedo=0.23, initial sat.=0.75. If you have 
#  any question, please contact Reza Savabi, Ph: (317)-494-5051
#  Soil Name: CROWFLATS       Rec. ID: NM0646     Tex.:silt loam           
1     1
'CROWFLATS'         'SIL'    2   .23   .75  4702762.00  .007896   3.50   1.37
 101.6    6.4   24.5    1.50    17.4      .0
1219.2   40.8   22.5     .50    13.5      .0
