95.1
#  This WEPP soil input file was made using USDA-SCS Soil-5 (1992) data 
#  base. Assumptions: soil albedo=0.23, initial sat.=0.75. If you have 
#  any question, please contact Reza Savabi, Ph: (317)-494-5051
#  Soil Name: DIATEE          Rec. ID: NM0623     Tex.:gravelly loam       
1     1
'DIATEE'            'GR-L'   4   .23   .75  4856872.00  .006269   2.90   7.63
  50.8   48.2   13.5    2.00    11.6    19.4
 355.6   41.5   27.5     .67    16.5    24.1
 457.2   61.3   21.5     .22    12.9    44.3
1524.0   80.0    4.5     .07     2.7    48.1
