95.1
#  This WEPP soil input file was made using USDA-SCS Soil-5 (1992) data 
#  base. Assumptions: soil albedo=0.23, initial sat.=0.75. If you have 
#  any question, please contact Reza Savabi, Ph: (317)-494-5051
#  Soil Name: FLUGLE          Rec. ID: NM0625     Tex.:sandy loam          
1     1
'FLUGLE'            'SL'     3   .23   .75  5010105.00  .006508   2.98   9.59
  76.2   60.4   15.3    2.00    12.7     2.7
 635.0   55.7   27.5     .67    16.5     2.9
1524.0   70.4   15.0     .22     9.0     2.9
