95.1
#  This WEPP soil input file was made using USDA-SCS Soil-5 (1992) data 
#  base. Assumptions: soil albedo=0.23, initial sat.=0.75. If you have 
#  any question, please contact Reza Savabi, Ph: (317)-494-5051
#  Soil Name: GALLEN          Rec. ID: NM0656     Tex.:GRV-L               
1     1
'GALLEN'            'GRV-L'  4   .23   .75  4856872.00  .007740   2.90   7.73
 101.6   48.2   13.5    1.50    10.7    46.3
 381.0   59.0   14.0     .50     8.4    65.1
 635.0   73.3    7.5     .17     4.5    65.1
1524.0   80.8    3.0     .06     1.8    65.1
