95.1
#  This WEPP soil input file was made using USDA-SCS Soil-5 (1992) data 
#  base. Assumptions: soil albedo=0.23, initial sat.=0.75. If you have 
#  any question, please contact Reza Savabi, Ph: (317)-494-5051
#  Soil Name: GUSTSPRING      Rec. ID: NM0628     Tex.:loam                
1     1
'GUSTSPRING'        'L'      4   .23   .75  4856872.00  .006269   2.90   7.63
  50.8   48.2   13.5    2.00    11.6     8.3
 279.4   47.5   26.5     .67    15.9    24.0
 558.8   78.8    7.5     .22     4.5    31.9
1524.0   85.7    7.5     .07     4.5    51.5
