95.1
#  This WEPP soil input file was made using USDA-SCS Soil-5 (1992) data 
#  base. Assumptions: soil albedo=0.23, initial sat.=0.75. If you have 
#  any question, please contact Reza Savabi, Ph: (317)-494-5051
#  Soil Name: HUBBELL         Rec. ID: NM0629     Tex.:loamy sand          
1     1
'HUBBELL'           'LS'     2   .23   .75  5505466.00  .008752   2.35  13.22
 101.6   76.5    7.9    1.50     7.4     3.0
1524.0   78.6   11.5     .50     6.9     2.6
