95.1
#  This WEPP soil input file was made using USDA-SCS Soil-5 (1992) data 
#  base. Assumptions: soil albedo=0.23, initial sat.=0.75. If you have 
#  any question, please contact Reza Savabi, Ph: (317)-494-5051
#  Soil Name: JOACHEM         Rec. ID: NM0631     Tex.:gravelly sandy loam 
1     1
'JOACHEM'           'GR-SL'  3   .23   .75  4883501.00  .005491   2.77  10.92
  76.2   67.7   11.6    3.00    12.2    22.0
 203.2   62.2   13.5    1.00     8.1    25.9
 279.4   62.9    7.5     .33     4.5    31.1
