95.1
#  This WEPP soil input file was made using USDA-SCS Soil-5 (1992) data 
#  base. Assumptions: soil albedo=0.23, initial sat.=0.75. If you have 
#  any question, please contact Reza Savabi, Ph: (317)-494-5051
#  Soil Name: MAIA            Rec. ID: NM0635     Tex.:sandy loam          
1     1
'MAIA'              'SL'     4   .23   .75  5010105.00  .005922   2.98   9.52
 127.0   60.4   15.3    2.50    13.6     4.0
 431.8   50.4   30.0     .83    18.0     4.2
 584.2   43.8   30.0     .28    18.0    22.8
1524.0   60.0   20.0     .09    12.0    22.8
