95.1
#  This WEPP soil input file was made using USDA-SCS Soil-5 (1992) data 
#  base. Assumptions: soil albedo=0.23, initial sat.=0.75. If you have 
#  any question, please contact Reza Savabi, Ph: (317)-494-5051
#  Soil Name: NUTIVOLI        Rec. ID: NM0615     Tex.:fine sand           
1     1
'NUTIVOLI'          'FS'     2   .23   .75  5800466.00  .007743   2.04  16.33
 152.4   91.4    4.6    2.00     6.3      .0
1524.0   81.2    6.5     .67     3.9      .0
