95.1
#  This WEPP soil input file was made using USDA-SCS Soil-5 (1992) data 
#  base. Assumptions: soil albedo=0.23, initial sat.=0.75. If you have 
#  any question, please contact Reza Savabi, Ph: (317)-494-5051
#  Soil Name: ORLIE           Rec. ID: NM0673     Tex.:loam                
1     1
'ORLIE'             'L'      3   .23   .75  6114516.00  .007647   3.18   5.07
  50.8   35.1   23.6    2.50    18.6     5.8
 558.8   30.5   31.5     .83    18.9     7.3
1524.0   40.0   31.5     .28    18.9     7.3
