95.1
#  This WEPP soil input file was made using USDA-SCS Soil-5 (1992) data 
#  base. Assumptions: soil albedo=0.23, initial sat.=0.75. If you have 
#  any question, please contact Reza Savabi, Ph: (317)-494-5051
#  Soil Name: PENEY           Rec. ID: NM0674     Tex.:CN-L                
1     1
'PENEY'             'CN-L'   3   .23   .75  6114516.00  .009704   3.18   5.16
  76.2   35.1   23.6    1.50    16.8    23.2
 177.8   39.7   26.5     .50    15.9     6.3
 254.0   35.9   26.5     .17    15.9     6.3
