95.1
#  This WEPP soil input file was made using USDA-SCS Soil-5 (1992) data 
#  base. Assumptions: soil albedo=0.23, initial sat.=0.75. If you have 
#  any question, please contact Reza Savabi, Ph: (317)-494-5051
#  Soil Name: TEROMOTE        Rec. ID: NM0679     Tex.:loam                
1     1
'TEROMOTE'          'L'      3   .23   .75  4856872.00  .015950   2.90   7.92
  50.8   48.2   13.5     .70     9.3      .0
 304.8   40.8   27.5     .23    16.5      .0
1524.0   37.5   27.5     .08    16.5      .0
