95.1
#  This WEPP soil input file was made using USDA-SCS Soil-5 (1992) data 
#  base. Assumptions: soil albedo=0.23, initial sat.=0.75. If you have 
#  any question, please contact Reza Savabi, Ph: (317)-494-5051
#  Soil Name: THREADGILL      Rec. ID: NM0617     Tex.:silt loam           
1     1
'THREADGILL'        'SIL'    2   .23   .75  5056855.00  .010498   3.50   2.82
 127.0   16.9   18.1    1.50    13.5      .0
1524.0   33.0   31.0     .50    18.6      .0
