95.1
#  This WEPP soil input file was made using USDA-SCS Soil-5 (1992) data 
#  base. Assumptions: soil albedo=0.23, initial sat.=0.75. If you have 
#  any question, please contact Reza Savabi, Ph: (317)-494-5051
#  Soil Name: VALNOR          Rec. ID: NM0660     Tex.:fine sandy loam     
1     1
'VALNOR'            'FSL'    4   .23   .75  6021164.00  .007268   2.70   8.51
 152.4   55.1   15.7    3.00    14.7     6.1
 304.8   52.7   27.5    1.00    16.5     7.5
 787.4   33.3   40.0     .33    24.0     7.9
 914.4   29.5   40.0     .11    24.0     7.9
