95.1
#  This WEPP soil input file was made using USDA-SCS Soil-5 (1992) data 
#  base. Assumptions: soil albedo=0.23, initial sat.=0.75. If you have 
#  any question, please contact Reza Savabi, Ph: (317)-494-5051
#  Soil Name: VETEADO         Rec. ID: NM0636     Tex.:loam                
1     1
'VETEADO'           'L'      4   .23   .75  4856872.00  .007740   2.90   7.73
 152.4   48.2   13.5    1.50    10.7     4.0
 406.4   36.3   47.5     .50    28.5     1.3
 711.2   47.9   30.0     .17    18.0     2.8
1524.0   56.9   26.5     .06    15.9     4.2
