95.1
#  This WEPP soil input file was made using USDA-SCS Soil-5 (1992) data 
#  base. Assumptions: soil albedo=0.23, initial sat.=0.75. If you have 
#  any question, please contact Reza Savabi, Ph: (317)-494-5051
#  Soil Name: CAMPBELLTON     Rec. ID: TX0594     Tex.:loam                
1     1
'CAMPBELLTON'       'L'      3   .23   .75  5314088.00  .006983   3.12   6.34
 304.8   41.0   18.9    2.00    13.0     1.5
1193.8   31.5   41.5     .67    20.8     1.5
2032.0   44.0   24.5     .22    12.3     1.4
