95.1
#  This WEPP soil input file was made using USDA-SCS Soil-5 (1992) data 
#  base. Assumptions: soil albedo=0.23, initial sat.=0.75. If you have 
#  any question, please contact Reza Savabi, Ph: (317)-494-5051
#  Soil Name: CHOPTIE         Rec. ID: OR0715     Tex.:loam                
1     1
'CHOPTIE'           'L'      2   .23   .75  4856872.00  .007740   2.90   7.73
 152.4   48.2   13.5    1.50    10.7     8.2
 203.2   49.8   15.0     .50     9.0    17.9
