95.1
#  This WEPP soil input file was made using USDA-SCS Soil-5 (1992) data 
#  base. Assumptions: soil albedo=0.23, initial sat.=0.75. If you have 
#  any question, please contact Reza Savabi, Ph: (317)-494-5051
#  Soil Name: SANDOVAL        Rec. ID: NM0686     Tex.:loam                
1     1
'SANDOVAL'          'L'      2   .23   .75  4856872.00  .015013   2.90   7.91
  50.8   48.2   13.5     .75     9.4     8.1
 457.2   35.6   27.5     .25    16.5     7.2
