95.1
#  This WEPP soil input file was made using USDA-SCS Soil-5 (1992) data 
#  base. Assumptions: soil albedo=0.23, initial sat.=0.75. If you have 
#  any question, please contact Reza Savabi, Ph: (317)-494-5051
#  Soil Name: CAMPBELL        Rec. ID: CA2054     Tex.:silty clay loam     
1     1
'CAMPBELL'          'SICL'   4   .23   .75  4238375.00  .007085   3.50   1.11
 482.6    7.2   32.9    2.00    26.6      .0
 736.6   31.3   31.0     .67    21.7      .0
1041.4   32.8   26.5     .22    18.5      .0
1930.4   21.7   50.0     .07    35.0      .0
